50
AS1 ligand from AS1Sel.gro
N  46.610000  40.510000  41.220000
C  46.840000  39.290000  40.700000
O  47.940000  38.820000  40.590000
N  45.770000  38.510000  40.230000
C  44.460000  38.810000  40.360000
O  43.580000  38.100000  39.960000
C  44.200000  40.140000  41.000000
N  42.990000  40.480000  41.220000
C  42.760000  41.750000  41.680000
C  41.420000  42.180000  41.860000
C  41.120000  43.460000  42.270000
C  39.690000  43.920000  42.400000
C  42.200000  44.360000  42.520000
C  41.950000  45.760000  43.020000
C  43.510000  43.940000  42.360000
C  43.810000  42.630000  41.930000
N  45.120000  42.190000  41.770000
C  45.370000  40.950000  41.320000
C  46.240000  43.150000  41.910000
C  46.760000  43.280000  43.330000
O  45.750000  43.320000  44.320000
C  47.710000  44.510000  43.480000
O  47.020000  45.700000  43.130000
C  49.010000  44.370000  42.640000
O  49.840000  43.340000  43.170000
C  49.820000  45.690000  42.530000
O  50.100000  46.290000  43.780000
P  51.400000  45.950000  44.560000
O  51.230000  46.720000  45.790000
O  51.350000  44.500000  44.750000
O  52.500000  46.430000  43.710000
H  46.010000  37.590000  39.880000
H  40.650000  41.470000  41.640000
H  39.020000  43.070000  42.420000
H  39.410000  44.570000  41.570000
H  39.540000  44.490000  43.310000
H  41.150000  46.240000  42.480000
H  42.850000  46.360000  42.930000
H  41.680000  45.730000  44.070000
H  44.300000  44.630000  42.600000
H  45.890000  44.110000  41.560000
H  47.030000  42.800000  41.270000
H  47.360000  42.380000  43.530000
H  46.200000  43.410000  45.190000
H  48.010000  44.580000  44.530000
H  47.490000  46.450000  43.550000
H  48.730000  44.110000  41.620000
H  50.430000  43.780000  43.860000
H  49.210000  46.390000  41.960000
H  50.730000  45.510000  41.970000
