50
SOPP3 ligand from Selected_100.gro
N  36.500000  38.960000  40.830000
C  36.280000  38.340000  39.640000
O  35.280000  37.590000  39.500000
N  37.130000  38.500000  38.580000
C  38.270000  39.260000  38.620000
O  39.060000  39.300000  37.660000
C  38.510000  39.980000  39.850000
N  39.610000  40.750000  39.970000
C  39.830000  41.360000  41.160000
C  40.960000  42.160000  41.340000
C  41.260000  42.760000  42.550000
C  42.530000  43.570000  42.700000
C  40.370000  42.570000  43.660000
C  40.650000  43.230000  44.990000
C  39.250000  41.760000  43.510000
C  38.960000  41.170000  42.300000
N  37.820000  40.350000  42.160000
C  37.580000  39.760000  40.940000
C  37.000000  39.980000  43.300000
C  35.850000  40.880000  43.610000
O  36.290000  42.240000  43.460000
C  35.360000  40.650000  45.050000
O  36.430000  40.840000  45.960000
C  34.780000  39.260000  45.290000
O  33.690000  39.040000  44.410000
C  34.410000  39.000000  46.750000
O  33.640000  40.040000  47.300000
P  32.040000  40.160000  47.180000
O  31.740000  40.300000  45.680000
O  31.710000  41.420000  47.930000
O  31.400000  38.900000  47.770000
H  36.910000  38.000000  37.720000
H  41.620000  42.270000  40.500000
H  42.970000  43.770000  41.720000
H  43.240000  43.000000  43.300000
H  42.330000  44.520000  43.170000
H  41.430000  43.950000  45.090000
H  40.840000  42.490000  45.760000
H  39.750000  43.620000  45.440000
H  38.590000  41.720000  44.360000
H  37.600000  39.860000  44.190000
H  36.560000  38.980000  43.250000
H  35.040000  40.680000  42.910000
H  35.540000  42.810000  43.720000
H  34.580000  41.380000  45.260000
H  35.990000  40.970000  46.810000
H  35.540000  38.520000  45.060000
H  32.880000  39.480000  44.830000
H  35.330000  38.910000  47.330000
H  33.880000  38.050000  46.830000
