50
SOPP3 ligand from Selected_100.gro
N  31.640000  34.170000  35.990000
C  31.400000  33.540000  34.820000
O  30.450000  32.810000  34.650000
N  32.280000  33.680000  33.750000
C  33.340000  34.520000  33.690000
O  34.040000  34.630000  32.730000
C  33.590000  35.250000  34.980000
N  34.610000  36.020000  35.050000
C  34.910000  36.570000  36.270000
C  36.070000  37.380000  36.380000
C  36.480000  37.910000  37.590000
C  37.750000  38.710000  37.690000
C  35.690000  37.630000  38.740000
C  36.120000  38.120000  40.100000
C  34.530000  36.880000  38.630000
C  34.140000  36.320000  37.400000
N  33.000000  35.510000  37.280000
C  32.700000  34.950000  36.100000
C  32.240000  35.120000  38.490000
C  31.130000  36.100000  38.820000
O  31.530000  37.450000  38.730000
C  30.490000  35.810000  40.220000
O  31.470000  35.910000  41.250000
C  29.780000  34.440000  40.280000
O  28.670000  34.390000  39.390000
C  29.310000  34.060000  41.700000
O  28.560000  35.060000  42.360000
P  27.030000  35.180000  42.180000
O  26.820000  35.300000  40.740000
O  26.720000  36.400000  42.930000
O  26.470000  33.970000  42.790000
H  32.050000  33.170000  32.910000
H  36.640000  37.540000  35.470000
H  38.120000  38.970000  36.710000
H  38.520000  38.150000  38.220000
H  37.590000  39.640000  38.240000
H  36.320000  39.180000  40.080000
H  37.040000  37.620000  40.410000
H  35.350000  37.920000  40.830000
H  33.950000  36.710000  39.510000
H  32.930000  35.040000  39.310000
H  31.810000  34.150000  38.280000
H  30.350000  35.960000  38.070000
H  30.720000  37.990000  38.800000
H  29.730000  36.580000  40.390000
H  30.980000  36.150000  42.070000
H  30.490000  33.670000  39.980000
H  27.900000  34.810000  39.880000
H  30.210000  33.880000  42.300000
H  28.750000  33.120000  41.680000
