950
VDW surface points
H 4.671660 2.732051 -1.304798
H 3.383888 0.845908 1.699990
H 3.175528 1.295051 1.628207
H 3.716832 1.212341 1.627153
H 2.888447 0.878244 1.626685
H 3.860615 0.714170 1.625304
H 3.124113 0.424531 1.625164
H 3.616750 0.276710 1.582403
H 3.510904 1.650379 1.495172
H 2.641633 0.458595 1.479139
H 4.099042 0.303341 1.440310
H 4.316959 0.768342 1.417092
H 3.199249 1.973470 1.264350
H 2.381116 0.142458 1.177236
H 4.519872 0.370745 1.167452
H 3.368901 2.289915 0.906438
H 4.679444 0.160098 -0.852742
H 3.366188 2.302009 -0.886914
H 2.230048 0.137461 -1.026479
H 4.493001 0.445615 -1.220578
H 3.545110 1.997941 -1.244826
H 2.623507 0.143728 -1.346826
H 4.103450 0.160062 -1.374935
H 3.105205 1.791419 -1.389493
H 2.484660 0.621428 -1.425631
H 4.263291 0.854320 -1.453483
H 3.790971 1.613114 -1.463828
H 3.097476 0.145584 -1.520047
H 3.613780 0.156744 -1.533950
H 2.876396 1.353288 -1.543780
H 3.867847 1.133676 -1.604400
H 3.858777 0.602492 -1.612498
H 3.376578 1.373009 -1.618115
H 2.945054 0.623848 -1.627103
H 3.447249 0.874211 -1.698582
H 2.163887 1.487038 1.699970
H 1.955527 1.936181 1.628187
H 2.496831 1.853471 1.627133
H 1.668446 1.519374 1.626665
H 2.640614 1.355300 1.625284
H 1.904112 1.065661 1.625144
H 2.388552 0.905417 1.579012
H 2.290903 2.291509 1.495152
H 1.469231 1.960116 1.480640
H 1.996350 0.602115 1.438441
H 1.775917 2.352840 1.414825
H 2.787173 2.225323 1.400782
H 2.112840 2.674747 1.221007
H 1.306121 2.340943 1.199568
H 2.613095 2.646189 1.164507
H 0.920699 2.234192 0.894785
H 3.032209 2.665603 0.869952
H 1.208364 2.647203 0.805565
H 3.343165 2.620646 0.471292
H 0.869981 2.501932 0.451210
H 0.873727 2.601895 -0.039362
H 3.266548 2.768376 -0.205679
H 1.013877 2.634565 -0.519028
H 3.075123 2.759026 -0.672659
H 0.909691 2.261338 -0.855735
H 1.320546 2.646377 -0.923142
H 2.715372 2.733799 -1.021560
H 1.765280 2.680859 -1.149680
H 2.986348 2.345925 -1.217462
H 1.079773 1.964688 -1.223570
H 2.258667 2.657414 -1.234735
H 1.434734 2.324640 -1.292265
H 1.964326 0.450098 -1.328028
H 2.532844 2.292216 -1.453737
H 1.940306 2.331423 -1.462186
H 1.308497 1.565551 -1.468670
H 1.718381 0.860084 -1.514310
H 1.636301 1.941251 -1.553420
H 2.637611 1.815770 -1.599762
H 2.193266 0.991196 -1.623986
H 1.736006 1.351648 -1.639808
H 2.140721 1.906648 -1.648772
H 0.950851 0.781104 1.699957
H 0.742491 1.230247 1.628174
H 1.283795 1.147537 1.627120
H 0.455410 0.813440 1.626652
H 1.427578 0.649366 1.625271
H 0.691076 0.359727 1.625131
H 1.183713 0.211906 1.582370
H 1.077867 1.585575 1.495139
H 0.256195 1.254182 1.480627
H 0.208596 0.393791 1.479106
H 1.665862 0.207348 1.428083
H 0.562881 1.646906 1.414812
H -0.023798 0.836123 1.393560
H -0.193276 0.345742 1.179590
H -0.202989 0.072657 -1.026512
H -0.192038 0.542651 -1.236690
H 0.582580 1.848911 -1.276105
H 0.190470 0.078924 -1.346859
H 1.611477 0.096226 -1.404810
H 0.043156 0.941802 -1.430509
H 0.330712 1.425575 -1.449326
H 0.664439 0.080780 -1.520080
H 0.821327 1.472587 -1.550437
H 0.309269 0.534962 -1.554954
H 1.146505 0.206751 -1.585638
H 0.531045 1.001453 -1.633946
H 1.290761 1.094135 -1.636661
H 0.795070 0.562298 -1.678112
H 0.971867 -0.631371 1.699963
H 0.763507 -0.182228 1.628180
H 0.476426 -0.599035 1.626658
H 1.351149 -0.311830 1.626635
H 0.712092 -1.052748 1.625137
H 1.427431 -0.826398 1.624786
H 1.180927 -1.258664 1.563441
H 0.277211 -0.158293 1.480633
H 1.795742 -0.502295 1.480610
H 0.229612 -1.018684 1.479112
H 0.767358 -1.519522 1.431693
H -0.002782 -0.576352 1.393566
H 1.127075 -1.796868 1.221889
H -0.171854 -0.156185 1.169110
H 1.001198 -2.053005 -0.922634
H 0.650333 -1.803721 -1.183180
H -0.155178 -0.377303 -1.250353
H 1.167268 -1.734955 -1.272822
H 1.935099 -0.291714 -1.358836
H 0.428055 -1.409955 -1.407636
H 0.076160 -0.799961 -1.435769
H 1.378493 -1.331497 -1.491450
H 1.707183 -0.719939 -1.528758
H 0.313604 -0.372253 -1.547786
H 0.887514 -1.262281 -1.574117
H 1.409964 -0.323832 -1.614046
H 0.533628 -0.905734 -1.619102
H 1.237703 -0.877599 -1.659710
H 0.906343 -0.332957 -1.673472
H 2.209692 -1.284452 1.699986
H 2.335818 -0.805626 1.627828
H 1.714251 -1.252116 1.626681
H 2.693274 -1.177988 1.625979
H 1.949917 -1.705829 1.625160
H 2.520595 -1.671139 1.624130
H 2.260304 -2.083271 1.496548
H 2.997165 -1.554272 1.479954
H 1.561171 -1.951880 1.420926
H 2.276869 -0.345910 1.419616
H 2.777097 -2.043214 1.407398
H 1.868958 -2.334668 1.288453
H 2.498120 -2.427241 1.219033
H 3.230091 -1.912447 1.200964
H 1.388248 -2.294772 1.089181
H 2.993895 -2.342344 1.067625
H 3.394613 -2.189259 0.806962
H 3.396700 -2.442060 0.349110
H 3.397353 -2.438380 -0.358991
H 1.284497 -2.524299 -0.697429
H 3.431294 -2.165178 -0.778482
H 3.036465 -2.450577 -0.910534
H 1.652260 -2.505519 -1.037507
H 3.332756 -1.830632 -1.148400
H 2.591642 -2.468851 -1.151350
H 2.098230 -2.415117 -1.259505
H 2.937801 -2.118228 -1.285110
H 1.519656 -2.103467 -1.317784
H 2.447987 -0.332023 -1.391463
H 3.120964 -1.466836 -1.421258
H 2.445176 -2.105915 -1.465939
H 1.959420 -1.982125 -1.527588
H 2.707715 -0.769625 -1.542942
H 2.691720 -1.676297 -1.580273
H 2.204569 -0.714933 -1.603842
H 1.823028 -1.507361 -1.640096
H 2.504192 -1.212899 -1.672606
H 3.400101 -0.572331 1.699997
H 3.191741 -0.123188 1.628214
H 2.904660 -0.539995 1.626692
H 3.779383 -0.252790 1.626669
H 3.237755 -1.039969 1.624867
H 3.855665 -0.767358 1.624820
H 3.692484 -1.237018 1.534125
H 4.223976 -0.443255 1.480644
H 4.504866 -0.137791 -1.216826
H 3.686471 -1.545789 -1.359247
H 4.280340 -0.518786 -1.452189
H 3.932786 -1.131515 -1.511451
H 3.441145 -1.121300 -1.606312
H 3.869841 -0.272516 -1.606476
H 2.939476 -0.328340 -1.619629
H 3.538330 -0.637098 -1.692700
H 4.434419 1.722701 1.682826
H 4.342665 1.234609 1.619234
H 4.674740 2.168105 1.616636
H 4.172163 2.128669 1.553653
H 5.048178 2.460640 1.439178
H 4.423501 2.551745 1.416452
H 3.718249 2.092797 1.340478
H 3.949849 2.542559 1.254137
H 4.790595 2.836744 1.202903
H 5.469210 2.570717 1.173178
H 5.205186 2.948811 0.942356
H 4.961977 0.259328 0.941841
H 5.864398 2.467845 0.873171
H 5.628933 2.866004 0.676356
H 5.365156 0.235922 0.645883
H 6.163888 2.179682 0.587440
H 5.782279 0.430852 0.408320
H 5.986803 2.627504 0.404903
H 6.317128 1.745921 0.373096
H 6.131238 0.833098 0.275356
H 5.613926 3.035601 0.206006
H 6.315959 1.287853 0.167575
H 6.226272 2.300082 0.099442
H 5.529020 0.180777 0.040297
H 5.935034 0.517769 -0.064113
H 5.945967 2.753503 -0.079724
H 6.343455 1.860482 -0.120356
H 6.209466 0.969827 -0.205902
H 5.577786 3.042089 -0.303010
H 6.136605 2.395109 -0.385185
H 5.638965 0.320120 -0.432136
H 5.823299 2.724369 -0.608471
H 5.213549 0.176459 -0.660758
H 5.359943 2.997588 -0.752342
H 3.697582 2.679767 -0.940263
H 5.580854 2.622549 -1.041443
H 4.145644 2.771465 -1.161348
H 5.164523 2.588688 -1.319754
H 3.883392 2.365586 -1.327033
H 4.354361 2.382872 -1.499038
H 4.169966 1.920947 -1.603261
H 4.333608 1.322352 -1.637011
H 4.480562 -1.395075 1.683215
H 4.748438 -1.821514 1.620911
H 4.358642 -0.907168 1.614942
H 4.241261 -1.821713 1.554112
H 5.124533 -2.108800 1.440948
H 4.519814 -2.226008 1.420843
H 3.778300 -1.714242 1.367831
H 4.023404 -2.186957 1.288300
H 4.586172 -0.169353 1.254269
H 4.891184 -2.489145 1.211039
H 5.551161 -2.193406 1.180285
H 5.317969 -2.583624 0.944922
H 5.937174 -2.076798 0.884326
H 5.728481 -2.492211 0.666611
H 6.225130 -1.778573 0.597192
H 6.075713 -2.226537 0.411401
H 5.797024 -0.070679 0.395790
H 6.361770 -1.344366 0.373906
H 6.144094 -0.448307 0.267108
H 5.699707 -2.675068 0.192399
H 6.344977 -0.891100 0.141797
H 6.310572 -1.854904 0.109990
H 6.024568 -2.378699 -0.071635
H 5.937935 -0.145061 -0.087246
H 6.396691 -1.405546 -0.122120
H 6.213836 -0.562172 -0.221381
H 5.673190 -2.671461 -0.314534
H 6.212494 -2.002598 -0.367593
H 5.915463 -2.335063 -0.610492
H 5.440497 -2.639068 -0.763562
H 3.836827 -2.401084 -0.974606
H 5.652077 -2.271802 -1.033049
H 5.038698 -2.582084 -1.077847
H 4.293774 -2.470508 -1.173504
H 3.858331 -2.014075 -1.296428
H 5.247415 -2.198614 -1.343964
H 4.727481 -2.310945 -1.374484
H 4.319256 -2.024972 -1.494038
H 4.780275 -1.849829 -1.610455
H 4.213075 -1.544883 -1.610712
H 1.629889 2.727568 1.094720
H 1.996083 3.132722 1.056423
H 2.499036 3.109718 0.994518
H 1.523235 3.168857 0.869448
H 2.224273 3.478818 0.775944
H 2.909667 3.123397 0.689039
H 1.749395 3.548670 0.605548
H 1.148657 3.070269 0.542450
H 2.648516 3.519022 0.488868
H 2.154985 3.722164 0.338698
H 1.355942 3.469364 0.295825
H 3.163127 3.054769 0.262900
H 2.913158 3.449349 0.060905
H 1.020027 3.100081 0.058153
H 1.727685 3.713185 0.053975
H 2.488364 3.705455 -0.050637
H 1.297073 3.444102 -0.203924
H 2.061263 3.724123 -0.335360
H 3.049598 3.206498 -0.359332
H 2.663066 3.511724 -0.486325
H 1.652129 3.537808 -0.557581
H 1.184080 3.106209 -0.568423
H 2.238040 3.495365 -0.753773
H 1.570742 3.164535 -0.901854
H 2.050095 3.134200 -1.059418
H -0.220615 1.481175 1.549950
H -0.428524 1.929348 1.471219
H -0.714953 1.513452 1.469551
H 0.082349 1.875243 1.469191
H -0.479802 1.060773 1.467882
H -0.136394 2.309268 1.311062
H -0.910411 1.950974 1.309394
H 0.460040 2.117018 1.240623
H -0.631016 2.357827 1.215568
H 0.230845 2.536079 1.046940
H -0.305860 2.670909 0.997011
H -1.103948 2.287321 0.992853
H -0.786434 2.663666 0.836931
H 0.053040 2.847475 0.689609
H -1.196160 2.550009 0.570396
H -0.446053 2.912314 0.566828
H 0.477229 2.809625 0.403847
H -0.876669 2.856448 0.315952
H -0.061366 3.011638 0.228108
H -0.511666 3.009916 0.002569
H 0.334420 2.931717 -0.069616
H -1.175547 2.707581 -0.072697
H -0.108532 3.004395 -0.295156
H -0.814010 2.866931 -0.386080
H 0.511762 2.751887 -0.512840
H -1.274955 2.501105 -0.517127
H -0.403662 2.869237 -0.677823
H 0.084501 2.791138 -0.779375
H -0.890620 2.617038 -0.824529
H 0.463892 2.503708 -0.947259
H -1.186570 2.231170 -0.959273
H -0.281661 2.596436 -1.080925
H -0.745734 2.318021 -1.199470
H 0.102130 2.329434 -1.259898
H -0.971289 1.882014 -1.298660
H -0.338129 2.115904 -1.412046
H -0.469152 1.009377 -1.453889
H -0.731257 1.468283 -1.464183
H -0.090366 1.690701 -1.530874
H -0.232970 -1.310692 1.549955
H -0.440879 -0.862519 1.471224
H -0.727308 -1.278415 1.469556
H -0.492157 -1.731094 1.467887
H 0.125501 -1.650212 1.467297
H -0.969992 -1.695225 1.307730
H -1.126933 -1.851947 -1.143735
H -0.684208 -1.855642 -1.377540
H 0.187576 -1.865487 -1.381827
H -0.864423 -1.384038 -1.414377
H -0.484283 -0.731365 -1.418356
H -0.247944 -1.649332 -1.511206
H 2.118810 -2.749250 1.126280
H 2.605302 -2.878681 1.020475
H 1.632667 -2.721048 0.962118
H 2.217996 -3.176684 0.875411
H 3.041666 -2.778866 0.797127
H 1.723904 -3.158018 0.721495
H 2.676227 -3.245180 0.684790
H 2.070511 -3.445371 0.471322
H 3.086197 -3.109623 0.417342
H 1.382350 -3.110115 0.344661
H 2.533944 -3.492823 0.261601
H 1.704656 -3.418820 0.117665
H 3.341164 -2.852294 0.065343
H 2.943246 -3.336204 -0.010621
H 2.165508 -3.551392 -0.071830
H 1.400828 -3.178194 -0.208040
H 2.580918 -3.453619 -0.356552
H 3.162057 -3.047358 -0.362620
H 1.811078 -3.400119 -0.397535
H 1.495428 -3.004568 -0.670984
H 2.208948 -3.334093 -0.694758
H 2.796731 -3.156154 -0.708551
H 1.913387 -3.006319 -0.950932
H 2.415378 -2.989076 -1.006305
H 4.308146 2.968422 1.162624
H 4.665266 3.297916 1.025717
H 3.833596 2.960434 0.994748
H 4.161359 3.392699 0.942392
H 5.079308 3.401342 0.758866
H 4.529233 3.670454 0.717121
H 3.725509 3.358744 0.696994
H 4.057961 3.711370 0.529450
H 4.924345 3.738552 0.406867
H 5.348010 3.440217 0.337502
H 4.449240 3.880843 0.267374
H 3.662091 3.576286 0.244727
H 4.022886 3.829727 -0.017349
H 5.134338 3.700040 -0.051998
H 4.682447 3.876388 -0.176040
H 3.496308 3.403087 -0.196598
H 5.296734 3.436102 -0.456784
H 3.855107 3.642516 -0.458674
H 4.332596 3.781431 -0.528039
H 3.479054 3.078475 -0.590873
H 4.855506 3.671182 -0.599228
H 3.846725 3.309746 -0.842272
H 4.491973 3.493685 -0.908952
H 4.974595 3.285944 -0.917208
H 6.364001 1.418489 -0.376407
H 6.092626 0.611622 -0.534667
H 6.302289 1.974542 -0.607481
H 6.379365 0.997443 -0.678935
H 6.464791 1.559696 -0.849331
H 6.032704 2.348113 -0.874929
H 5.842251 0.362457 -0.896050
H 6.210465 0.687287 -1.040318
H 6.308816 1.979309 -1.109053
H 5.404567 0.250612 -1.117674
H 6.407868 1.148457 -1.159585
H 4.971182 0.359063 -1.351799
H 5.883245 2.336424 -1.352628
H 5.864375 0.502796 -1.378523
H 6.332722 1.572981 -1.419307
H 6.145612 0.904539 -1.520968
H 4.847943 2.286387 -1.588642
H 5.395866 0.464655 -1.594246
H 6.055830 1.944754 -1.619478
H 4.700117 0.677416 -1.626375
H 5.461847 2.331903 -1.632576
H 6.060790 1.337284 -1.778866
H 4.635127 1.871134 -1.786990
H 5.727900 0.790301 -1.792593
H 5.125585 0.783631 -1.884274
H 4.719629 1.101679 -1.893226
H 5.626028 1.938794 -1.899426
H 5.116734 2.002680 -1.913651
H 5.614067 1.235928 -2.012991
H 4.938107 1.543877 -2.022407
H 5.275662 1.413019 2.077038
H 5.069552 1.857322 1.975345
H 5.604891 1.775455 1.973853
H 4.785724 1.445060 1.973189
H 5.746941 1.282846 1.971233
H -4.775063 1.063472 -1.179461
H 5.018821 0.996510 1.971034
H 5.496072 0.842413 1.905681
H 5.398435 2.191286 1.786878
H 6.046631 1.642737 1.766983
H 5.106388 0.575573 1.714263
H 5.966687 0.910020 1.713932
H 5.883922 2.106096 1.648413
H 5.670200 0.519147 1.564790
H 6.280267 1.262293 1.510809
H 6.252849 1.894403 1.381562
H 5.280355 0.306020 1.325890
H 6.097994 0.657762 1.302116
H 5.739956 0.336794 1.103669
H 6.448502 1.517412 1.099259
H 6.386590 1.019385 1.079895
H 6.101417 0.553241 0.806446
H 6.445144 1.284634 0.655845
H 4.403586 -2.640609 1.164243
H 4.778279 -2.952360 1.033437
H 3.930481 -2.597026 1.007806
H 4.284057 -3.078348 0.945404
H 5.196195 -3.045319 0.765989
H 3.823937 -3.009731 0.727858
H 4.661354 -3.339437 0.722055
H 4.154261 -3.375024 0.557462
H 5.060941 -3.385667 0.424832
H 5.459401 -3.105336 0.305565
H 4.538130 -3.553329 0.285240
H 3.744550 -3.233569 0.282885
H 4.096485 -3.498960 0.043389
H 4.917503 -3.528490 -0.041759
H 5.341567 -3.274207 -0.153300
H 3.646996 -3.154817 -0.202108
H 4.473055 -3.551373 -0.283609
H 4.034302 -3.375065 -0.449330
H 5.001001 -3.372292 -0.514683
H 3.601651 -2.836432 -0.586668
H 4.516052 -3.335630 -0.735180
H 3.996484 -3.054148 -0.832066
H 4.945656 -3.065413 -0.906703
H 4.476661 -2.952231 -1.056542
H 5.307175 -1.062484 2.075801
H 5.101065 -0.618181 1.974108
H 5.636404 -0.700048 1.972616
H 4.817237 -1.030443 1.971952
H 5.778454 -1.192657 1.969996
H 5.050334 -1.478993 1.969797
H 5.527585 -1.633090 1.904444
H 5.429948 -0.284217 1.785641
H 6.078144 -0.832766 1.765746
H 4.664353 -0.526690 1.741210
H 5.998200 -1.565483 1.712695
H 5.915435 -0.369407 1.647176
H 4.980944 -0.156095 1.599794
H 6.311780 -1.213210 1.509572
H 6.284362 -0.581100 1.380325
H 5.939709 -1.941786 1.379264
H 5.952270 -0.106449 1.219478
H 6.306955 -1.627704 1.207044
H 6.480015 -0.958091 1.098022
H 6.283038 -0.363534 0.929450
H 6.441777 -0.753944 0.639422
H 6.410439 -0.990279 -0.413775
H 6.081990 -0.196439 -0.565504
H 6.355665 -1.568216 -0.603369
H 6.392159 -0.576246 -0.710998
H 6.118244 -1.938879 -0.865446
H 6.501947 -1.140590 -0.883317
H 6.189383 -0.264673 -1.050497
H 6.364440 -1.571271 -1.104942
H 6.417577 -0.738338 -1.193041
H 5.786970 -0.031906 -1.272718
H 5.944371 -1.962257 -1.334988
H 6.356733 -1.181774 -1.439666
H 5.247861 -0.035687 -1.503792
H 6.122165 -0.449003 -1.510490
H 4.789599 -0.261106 -1.611686
H 6.087134 -1.569534 -1.627436
H 4.392084 -0.992552 -1.652039
H 5.553364 -1.936497 -1.652967
H 5.679992 -0.270436 -1.701112
H 6.104374 -0.885633 -1.754164
H 4.657052 -1.405774 -1.823562
H 5.211556 -0.388048 -1.867861
H 4.737434 -0.695725 -1.869585
H 5.178120 -1.691732 -1.885965
H 5.669605 -1.521003 -1.920415
H 5.675233 -0.709742 -1.963188
H 5.000785 -1.102954 -2.035637
H -1.333761 0.825869 1.699926
H -1.542121 1.275012 1.628143
H -1.829202 0.858205 1.626621
H -0.857034 0.694131 1.625240
H -1.593536 0.404492 1.625100
H -1.100899 0.256671 1.582339
H -2.076016 0.438556 1.479075
H -1.331271 1.699819 1.461591
H -0.618607 0.283302 1.440246
H -2.477341 0.374825 1.174106
H -2.581403 0.193419 -0.965268
H -1.517298 1.974032 -1.245990
H -2.387277 0.515074 -1.297996
H -0.605616 0.065255 -1.330085
H -2.042360 0.153538 -1.389721
H -1.754421 1.586758 -1.464618
H -2.149295 0.929278 -1.489731
H -1.087028 0.093291 -1.510913
H -0.626339 0.532148 -1.515500
H -1.258469 1.546518 -1.540544
H -1.574038 0.229166 -1.571767
H -1.702111 1.115476 -1.635756
H -0.941263 1.045152 -1.639759
H -1.118376 0.570410 -1.665691
H -1.432236 -0.628869 1.699930
H -1.640596 -0.179726 1.628147
H -1.099292 -0.262436 1.627093
H -1.927677 -0.596533 1.626625
H -0.955509 -0.760607 1.625244
H -1.692011 -1.050246 1.625104
H -1.216209 -1.222686 1.575602
H -0.633004 -0.390969 1.481068
H -2.126892 -0.155791 1.480600
H -2.174491 -1.016182 1.479079
H -1.599773 -1.513792 1.438401
H -2.406885 -0.573850 1.393533
H -2.539756 -0.130996 1.194261
H -1.415012 -1.882852 1.141155
H -1.524874 -2.071994 -0.884493
H -2.595675 -0.265392 -1.189111
H -1.711653 -1.761741 -1.231498
H -2.377723 -0.681502 -1.413192
H -1.955887 -1.361852 -1.439593
H -1.362676 -1.487067 -1.462320
H -0.792463 -0.347906 -1.549925
H -2.048957 -0.319690 -1.555847
H -0.926072 -0.912502 -1.596198
H -1.949753 -0.886001 -1.598608
H -1.472210 -1.026730 -1.650989
H -1.559474 -0.272029 -1.658736
H -0.466373 -2.595693 1.677155
H -0.704399 -3.040335 1.615646
H -0.099336 -2.245755 1.610170
H -0.949701 -2.582247 1.537941
H -0.755581 -3.513956 1.442425
H -1.166750 -3.017060 1.410126
H 0.399347 -2.073440 1.408323
H -1.313340 -2.370538 1.264896
H -1.201092 -3.487602 1.212516
H -0.619588 -3.925595 1.190585
H -1.072750 -3.910248 0.955223
H -0.307691 -4.212088 0.897997
H -1.638376 -2.343421 0.883579
H -0.774977 -4.229919 0.694559
H 0.103067 -4.312922 0.619686
H -0.376983 -4.407108 0.439349
H 0.556588 -4.210312 0.405224
H 0.961316 -3.922521 0.306267
H -1.052086 -4.243021 0.276168
H 0.028588 -4.441382 0.134567
H 1.235188 -3.596210 0.033410
H -0.651228 -4.421717 0.012134
H 0.724991 -4.160751 -0.067209
H -1.054241 -4.248787 -0.236218
H 0.306029 -4.352945 -0.272730
H -0.242849 -4.444387 -0.292648
H -0.668158 -4.323125 -0.549824
H -1.091476 -4.069683 -0.701607
H -0.085069 -4.290394 -0.741981
H -0.502154 -4.129862 -0.988250
H -1.584033 -2.548212 -1.030239
H -1.223342 -3.702621 -1.035622
H -1.368703 -3.244787 -1.188692
H -0.772474 -3.798176 -1.248796
H -1.232200 -2.313774 -1.310516
H -1.210473 -2.806136 -1.402241
H -0.939681 -3.360539 -1.437161
H -0.789809 -2.327004 -1.550044
H -0.182871 -2.140616 -1.577873
H -0.759575 -2.922811 -1.614619
H -2.620742 1.592648 1.699840
H -2.829102 2.041791 1.628057
H -2.287798 1.959081 1.627003
H -3.116183 1.624984 1.626535
H -2.144015 1.460910 1.625154
H -2.880517 1.171271 1.625014
H -2.387880 1.023450 1.582253
H -2.493726 2.397119 1.495022
H -1.821510 1.830548 1.480978
H -3.315398 2.065726 1.480510
H -3.362997 1.205335 1.478989
H -2.769990 0.709971 1.441681
H -1.990694 2.303678 1.411559
H -3.595391 1.647667 1.393443
H -1.551142 2.151227 1.198010
H -3.728262 2.090521 1.194171
H -3.914301 2.355724 0.805622
H -4.139615 2.274211 0.365113
H -4.145700 2.343088 -0.130913
H -4.109107 2.167974 -0.597893
H -3.800335 2.372228 -0.951639
H -1.613447 2.502560 -1.026535
H -3.915618 1.895698 -1.063586
H -3.405526 2.394658 -1.282284
H -2.899984 0.522283 -1.286614
H -2.013379 2.470768 -1.325864
H -3.666129 1.557905 -1.341897
H -3.186482 0.919364 -1.453165
H -2.923452 2.426308 -1.454288
H -3.356005 1.931032 -1.497541
H -2.439778 2.304641 -1.535668
H -2.026298 2.004207 -1.539413
H -2.648149 0.885341 -1.543111
H -3.235119 1.402782 -1.574006
H -2.199025 1.418448 -1.636544
H -2.870380 1.956290 -1.643566
H -2.733248 1.360721 -1.679821
H -3.724711 0.771722 1.549980
H -3.932620 1.219895 1.471249
H -4.219049 0.803999 1.469581
H -3.983898 0.351320 1.467912
H -3.270198 0.577156 1.467527
H -4.414507 1.241521 1.309424
H -4.461733 0.387189 1.307755
H -2.963150 0.250026 1.241243
H -4.080845 1.638331 1.239523
H -4.689541 0.826245 1.213930
H -4.859104 0.395988 0.987518
H -4.217517 1.958087 0.876545
H -5.068363 0.276438 -0.593364
H -4.920337 0.573920 -0.967971
H -4.371940 1.682008 -1.081023
H -4.584260 0.272311 -1.188402
H -4.333642 1.245135 -1.347558
H -4.441033 0.725803 -1.374769
H -3.305707 0.246136 -1.393765
H -4.125635 0.258757 -1.405137
H -3.870758 1.123696 -1.504019
H -3.713786 0.515987 -1.527712
H -2.570317 -1.315777 1.549666
H -2.115585 -1.519489 1.472064
H -2.825260 -0.890136 1.469472
H -2.570494 -1.809222 1.462643
H -3.064544 -1.334591 1.460410
H -3.071914 -1.830337 1.357190
H -2.125795 -1.995743 1.317888
H -2.757278 -2.215699 1.230378
H -2.307078 -2.396526 1.065729
H -3.475739 -1.934045 1.064574
H -3.179851 -2.333711 0.962560
H -2.735004 -2.574684 0.856849
H -3.580343 -2.232811 0.676798
H -2.206455 -2.662331 0.649792
H -3.132903 -2.622371 0.549447
H -2.630883 -2.789011 0.411007
H -3.517055 -2.481067 0.242045
H -3.018544 -2.771036 0.081965
H -2.480428 -2.844051 -0.066153
H -3.682759 -2.330786 -0.207160
H -3.284404 -2.620116 -0.327657
H -2.808875 -2.760279 -0.438475
H -2.301787 -2.732751 -0.529939
H -3.491930 -2.321059 -0.678339
H -3.041807 -2.517659 -0.816779
H -2.066122 -2.468938 -0.893251
H -2.562752 -2.512779 -0.961200
H -3.486152 -1.957454 -1.040984
H -3.041798 -2.171161 -1.180296
H -2.082952 -2.103019 -1.240031
H -3.281170 -1.598130 -1.331315
H -2.575198 -2.079660 -1.337553
H -2.864160 -0.824451 -1.441749
H -2.796060 -1.646150 -1.489444
H -2.421643 -1.175621 -1.540220
H -3.752104 -0.638807 1.699937
H -3.960464 -0.189664 1.628154
H -3.419160 -0.272374 1.627100
H -4.247545 -0.606471 1.626632
H -4.011879 -1.060184 1.625111
H -3.392801 -0.979124 1.624573
H -3.653289 -1.396527 1.515434
H -2.952872 -0.400907 1.481075
H -4.446760 -0.165729 1.480607
H -4.494359 -1.026120 1.479086
H -4.142132 -1.496113 1.412241
H -4.726753 -0.583788 1.393540
H -4.859624 -0.140934 1.194268
H -3.977677 -1.882673 1.130560
H -5.124256 0.167883 0.610005
H -3.920907 -2.109832 -0.825294
H -5.012384 -0.043074 -0.979605
H -4.080096 -1.800447 -1.192030
H -4.826744 -0.389892 -1.296581
H -4.294190 -1.402557 -1.416486
H -3.011982 -0.157668 -1.453653
H -3.764711 -1.510379 -1.456064
H -4.602441 -0.823977 -1.460979
H -4.432334 -0.141353 -1.479492
H -3.256677 -1.136726 -1.545518
H -3.719262 0.002040 -1.576624
H -4.133120 -0.963175 -1.624089
H -3.261917 -0.563121 -1.625658
H -4.062679 -0.431146 -1.659642
H -2.726224 2.845894 1.519331
H -2.226154 2.818658 1.445224
H -3.089333 2.510029 1.438549
H -2.492370 3.282246 1.428994
H -3.171408 3.053981 1.422843
H -2.951073 3.494545 1.331276
H -2.006667 3.247508 1.280205
H -3.519910 2.717938 1.275231
H -1.784918 2.731507 1.213585
H -2.525115 3.731213 1.193795
H -3.440143 3.407028 1.182225
H -2.040362 3.699740 1.039456
H -2.981159 3.891223 1.025896
H -3.790186 3.065288 1.024195
H -1.597924 3.147975 0.992573
H -3.455202 3.798749 0.866427
H -2.351679 4.031292 0.830643
H -1.637192 3.592242 0.754154
H -3.831140 3.491539 0.744992
H -4.056896 2.819464 0.679550
H -2.799845 4.174492 0.653766
H -1.313303 3.048368 0.580078
H -1.923206 3.979991 0.577277
H -3.275224 4.116617 0.508824
H -3.706207 3.864278 0.415556
H -4.095895 3.252025 0.394248
H -2.380972 4.243868 0.378333
H -1.382803 3.495315 0.328021
H -4.203859 2.766636 0.197634
H -2.922630 4.298522 0.179388
H -1.653718 3.899109 0.163342
H -3.982445 3.615537 0.058713
H -3.464619 4.117464 0.041986
H -2.054497 4.183457 -0.001337
H -1.232769 3.207387 -0.067617
H -4.167966 3.172081 -0.115835
H -2.533894 4.310717 -0.140179
H -1.445839 3.641207 -0.216328
H -3.103677 4.240963 -0.293549
H -3.739405 3.866766 -0.314857
H -1.798945 3.971452 -0.381006
H -4.158247 2.764506 -0.417235
H -3.982252 3.449124 -0.495504
H -2.244936 4.154591 -0.535817
H -1.290712 3.012352 -0.537884
H -2.734686 4.181818 -0.645053
H -3.383610 3.996069 -0.650393
H -1.518315 3.477519 -0.685156
H -3.967000 3.036571 -0.803004
H -1.962378 3.840175 -0.837086
H -3.658766 3.617158 -0.853107
H -1.546065 3.024284 -0.968128
H -2.436791 3.937751 -0.980588
H -3.005512 3.920981 -0.985928
H -1.842053 3.423637 -1.094222
H -3.621676 3.198452 -1.140869
H -3.258385 3.539892 -1.206939
H -2.300482 3.543788 -1.268220
H -1.941850 2.969814 -1.308663
H -2.785046 3.465634 -1.366488
H -3.306016 2.881546 -1.390596
H -2.416622 3.091861 -1.466143
H -4.931984 -1.271584 1.514690
H -5.170665 -0.839239 1.436342
H -4.626603 -1.661075 1.434248
H -5.419089 -1.296694 1.396056
H -5.136832 -1.716681 1.394695
H -5.641254 -0.865220 1.238838
H -4.834995 -2.083377 1.235775
H -5.302687 -0.408090 1.207923
H -5.606839 -1.725902 1.192452
H -5.865599 -1.296416 1.104315
H -5.317491 -2.132371 1.093635
H -4.378746 -2.194017 1.058008
H -5.740728 -0.459810 0.963405
H -4.956303 -2.424533 0.888591
H -6.025930 -0.876188 0.875346
H -5.965468 -1.745222 0.843829
H -5.701002 -2.175135 0.767968
H -5.560995 -0.066940 0.700170
H -4.502203 -2.515582 0.685877
H -6.183832 -1.313658 0.672632
H -5.357411 -2.498110 0.581222
H -6.042694 -0.481528 0.561877
H -4.036862 -2.386810 0.524968
H -6.039198 -2.013124 0.416465
H -4.899689 -2.659841 0.410444
H -6.267144 -0.903061 0.381231
H -5.840195 -0.103144 0.286444
H -6.271015 -1.594694 0.252807
H -5.737308 -2.388014 0.251786
H -4.358167 -2.628964 0.211500
H -5.430183 0.182558 0.196527
H -5.303813 -2.637681 0.096976
H -6.169373 -0.491620 0.073862
H -6.345189 -1.180610 -0.028725
H -4.770248 -2.715497 -0.070033
H -6.129833 -1.975118 -0.074430
H -5.723198 0.013692 -0.189923
H -5.640877 -2.458548 -0.238559
H -4.163706 -2.544912 -0.241701
H -6.244435 -0.769044 -0.336094
H -6.259707 -1.569482 -0.339995
H -5.148448 -2.631377 -0.389600
H -5.997233 -0.333589 -0.435881
H -5.914705 -2.125372 -0.513993
H -4.573623 -2.602743 -0.523233
H -6.205014 -1.168721 -0.637495
H -5.498917 0.002587 -0.644223
H -5.461719 -2.386035 -0.703068
H -6.035361 -1.705718 -0.767359
H -6.023100 -0.690963 -0.786625
H -4.958540 -2.464021 -0.830602
H -4.372703 -2.338075 -0.897484
H -5.671918 -0.368713 -0.951722
H -5.672939 -2.009441 -0.966303
H -5.930397 -1.280405 -1.040462
H -5.216674 -2.145806 -1.122003
H -5.718911 -0.828589 -1.172734
H -4.718221 -2.123220 -1.201083
H -5.593405 -1.602145 -1.247835
H -5.308813 -0.521429 -1.272180
H -5.087199 -1.744145 -1.394007
H -5.403602 -1.158937 -1.405054
H -4.800474 -1.349733 -1.512012
H 0.256760 -3.152068 2.089001
H 0.050650 -2.707765 1.987308
H 0.585989 -2.789632 1.985816
H -0.233178 -3.120027 1.985152
H 0.728039 -3.282241 1.983196
H -0.000081 -3.568577 1.982997
H 0.477170 -3.722674 1.917644
H 1.027729 -2.922350 1.778946
H 0.087486 -3.989514 1.726226
H 0.947785 -3.655067 1.725895
H -0.384353 -3.741579 1.712068
H 0.675997 -2.374041 1.705171
H 0.651298 -4.045940 1.576753
H 1.261365 -3.302794 1.522772
H 1.102974 -2.526987 1.469223
H 0.261453 -4.259067 1.337853
H 1.079092 -3.907325 1.314079
H 0.721054 -4.228293 1.115632
H 1.367688 -3.545702 1.091858
H 1.082515 -4.011846 0.818409
H 1.323235 -3.606624 0.596188
H 1.043526 -3.868765 -0.345552
H 1.344271 -3.532477 -0.567773
H 0.700743 -4.213196 -0.569000
H 1.092740 -4.002785 -0.828722
H 0.385377 -4.338042 -0.938109
H 1.427633 -3.349444 -1.038874
H 0.798013 -4.170530 -1.197831
H 1.182762 -2.464604 -1.226280
H -0.034175 -4.256630 -1.240637
H 1.219871 -3.759190 -1.252772
H 1.352488 -2.932749 -1.323597
H 0.793677 -2.224202 -1.436000
H -0.363490 -3.977408 -1.494987
H 0.394061 -4.164681 -1.508085
H 1.224381 -3.360132 -1.562496
H 0.869916 -3.885526 -1.606429
H 1.051084 -2.684009 -1.658321
H 0.348949 -2.243217 -1.673673
H -0.541100 -3.542441 -1.695258
H -0.386620 -2.578237 -1.729477
H 0.047137 -3.914226 -1.787436
H 0.925359 -3.118390 -1.883592
H 0.614292 -2.607136 -1.898944
H -0.386673 -3.096139 -1.902127
H 0.493300 -3.721212 -1.914860
H 0.078146 -2.587636 -1.936346
H -0.049454 -3.465959 -2.004982
H 0.467118 -3.236352 -2.066588
H -1.583087 -3.139760 1.161131
H -1.650179 -3.615938 1.014177
H -2.027550 -3.067562 0.942027
H -2.088123 -3.544885 0.765729
H -1.513838 -4.013783 0.729455
H -2.365575 -3.210078 0.506604
H -1.957464 -3.948534 0.498281
H -1.588579 -4.216504 0.276060
H -2.307462 -3.654368 0.271882
H -2.016291 -4.039991 0.009209
H -2.452230 -3.347864 -0.097226
H -1.590338 -4.227231 -0.225512
H -2.238435 -3.740860 -0.324222
H -1.867564 -3.968489 -0.571443
H -2.327023 -3.247978 -0.572670
H -2.020458 -3.559481 -0.822843
H -2.061029 -2.985446 -0.909052
H -4.898181 1.282402 1.168748
H -4.574563 1.680066 1.111087
H -5.149435 0.873476 1.021794
H -5.072302 1.727737 0.998683
H -5.372157 1.327600 0.938536
H -4.743783 2.076597 0.842943
H -5.544718 0.913766 0.710413
H -5.463327 1.760187 0.682361
H -5.153471 2.151778 0.562995
H -5.707209 1.356348 0.514916
H -4.653743 2.349609 0.431128
H -5.627217 0.633418 0.301814
H -5.519354 1.999510 0.240771
H -5.053668 2.347599 0.108904
H -5.813980 1.062501 0.108141
H -5.769710 1.600611 0.071502
H -5.561131 0.493611 -0.178836
H -4.651525 2.414760 -0.188850
H -5.375820 2.144837 -0.218095
H -5.780926 1.295760 -0.335273
H -5.609055 1.756733 -0.452816
H -4.981638 2.248499 -0.528348
H -5.637571 0.852570 -0.532493
H -5.536002 1.369277 -0.775040
H -5.252581 1.898411 -0.778521
H -4.576230 2.126852 -0.795199
H -5.316636 0.891634 -0.924513
H -5.139390 1.488322 -1.055518
