37
VDW surface points
H -9.632887 -4.361865 -1.961133
H 3.404460 0.792996 6.799709
H 4.560076 0.174644 -6.662781
H -0.024438 4.298683 5.795576
H 2.992686 7.393874 3.275346
H 0.396808 7.982834 -1.003254
H 3.096153 6.120098 -4.894485
H -0.115438 2.472577 -6.501313
H 2.349021 -4.143481 6.165405
H 3.351211 -5.887116 -4.867552
H 7.556389 3.427157 5.888650
H 10.545796 0.415059 3.180002
H 7.987181 7.048547 2.440375
H 10.980320 4.132490 -0.340246
H 7.327612 7.366006 -2.524602
H 10.317662 0.304084 -3.529886
H 7.230281 -2.438767 6.211666
H 6.114794 -6.737160 3.847670
H 10.282977 -4.523568 2.188777
H 7.381645 -7.488941 -0.948785
H 8.452407 -4.407099 -4.753999
H -1.411664 -0.681781 6.799649
H -2.525560 -2.577189 -6.421175
H -2.564040 -5.531664 5.766909
H 1.156030 -8.347196 3.627024
H -3.583429 -8.426680 1.768596
H 0.304340 -9.435299 -1.226190
H -4.914903 -6.832149 -2.824228
H -4.934135 2.839486 6.273512
H -7.250703 5.708836 2.815875
H -8.735257 4.035370 -1.715508
H -5.141603 5.799793 -4.716730
H -6.330103 -2.103074 6.119130
H -9.311044 1.102168 3.514638
H -8.711897 -0.162836 -4.630616
H -2.694858 7.816824 3.443750
H -7.679486 -5.748945 2.848288
