50
CR2 ligand from CR2Sel.gro
N  35.690000  41.330000  36.590000
C  36.560000  40.910000  37.520000
O  37.250000  41.670000  38.170000
N  36.740000  39.540000  37.760000
C  36.020000  38.550000  37.200000
O  36.190000  37.390000  37.450000
C  35.000000  39.020000  36.220000
N  34.250000  38.150000  35.650000
C  33.400000  38.570000  34.670000
C  32.600000  37.620000  34.010000
C  31.770000  37.960000  32.960000
C  30.940000  36.900000  32.290000
C  31.740000  39.320000  32.550000
C  30.920000  39.770000  31.360000
C  32.490000  40.270000  33.220000
C  33.340000  39.910000  34.290000
N  34.120000  40.850000  34.970000
C  34.960000  40.450000  35.930000
C  34.140000  42.250000  34.490000
C  33.080000  43.130000  35.130000
O  31.820000  42.500000  35.310000
C  32.900000  44.450000  34.330000
O  32.490000  44.140000  33.010000
C  34.150000  45.360000  34.330000
O  34.360000  45.890000  35.640000
C  34.120000  46.480000  33.230000
O  34.120000  47.830000  33.660000
P  32.910000  48.500000  34.350000
O  32.960000  47.960000  35.710000
O  31.710000  48.150000  33.590000
O  33.290000  49.910000  34.240000
H  37.410000  39.290000  38.470000
H  32.650000  36.600000  34.370000
H  31.020000  35.960000  32.830000
H  31.270000  36.740000  31.260000
H  29.890000  37.170000  32.260000
H  30.050000  39.150000  31.210000
H  31.520000  39.700000  30.450000
H  30.610000  40.800000  31.470000
H  32.390000  41.300000  32.930000
H  34.030000  42.230000  33.420000
H  35.120000  42.640000  34.730000
H  33.440000  43.390000  36.130000
H  31.240000  43.210000  35.640000
H  32.100000  45.020000  34.800000
H  31.920000  44.890000  32.710000
H  35.000000  44.740000  34.070000
H  33.800000  46.730000  35.700000
H  33.300000  46.340000  32.530000
H  35.030000  46.350000  32.650000
