50
AS2 ligand from AS2Sel.gro
N  46.680000  40.470000  41.080000
C  46.910000  39.260000  40.540000
O  48.020000  38.800000  40.400000
N  45.840000  38.480000  40.080000
C  44.530000  38.770000  40.240000
O  43.650000  38.050000  39.850000
C  44.280000  40.090000  40.900000
N  43.060000  40.440000  41.120000
C  42.840000  41.700000  41.600000
C  41.510000  42.150000  41.790000
C  41.220000  43.420000  42.240000
C  39.780000  43.870000  42.390000
C  42.310000  44.300000  42.520000
C  42.080000  45.690000  43.070000
C  43.610000  43.870000  42.350000
C  43.900000  42.580000  41.870000
N  45.210000  42.120000  41.700000
C  45.440000  40.900000  41.220000
C  46.340000  43.080000  41.830000
C  46.880000  43.190000  43.250000
O  45.880000  43.150000  44.250000
C  47.780000  44.450000  43.410000
O  47.030000  45.610000  43.070000
C  49.080000  44.370000  42.570000
O  49.940000  43.340000  43.060000
C  49.850000  45.700000  42.500000
O  50.100000  46.290000  43.760000
P  51.400000  45.960000  44.550000
O  51.220000  46.720000  45.800000
O  51.370000  44.500000  44.750000
O  52.510000  46.430000  43.720000
H  46.080000  37.580000  39.690000
H  40.730000  41.450000  41.550000
H  39.110000  43.020000  42.330000
H  39.510000  44.580000  41.600000
H  39.620000  44.370000  43.330000
H  41.160000  46.120000  42.710000
H  42.910000  46.340000  42.790000
H  42.040000  45.660000  44.160000
H  44.410000  44.540000  42.600000
H  45.980000  44.040000  41.490000
H  47.110000  42.720000  41.180000
H  47.510000  42.310000  43.420000
H  46.330000  43.260000  45.110000
H  48.070000  44.530000  44.460000
H  47.510000  46.400000  43.390000
H  48.800000  44.120000  41.540000
H  50.490000  43.770000  43.790000
H  49.240000  46.400000  41.930000
H  50.780000  45.570000  41.940000
