50
AT2 ligand from AT2Sel.gro
N  46.180000  51.920000  48.970000
C  46.020000  52.680000  50.070000
O  45.060000  53.390000  50.240000
N  46.990000  52.690000  51.070000
C  48.110000  51.930000  51.100000
O  48.910000  51.990000  51.990000
C  48.260000  51.040000  49.910000
N  49.280000  50.260000  49.840000
C  49.460000  49.530000  48.700000
C  50.580000  48.670000  48.620000
C  50.830000  47.910000  47.500000
C  52.050000  47.040000  47.420000
C  49.910000  47.990000  46.410000
C  50.110000  47.170000  45.160000
C  48.800000  48.810000  46.500000
C  48.560000  49.600000  47.640000
N  47.450000  50.440000  47.750000
C  47.250000  51.160000  48.850000
C  46.560000  50.630000  46.580000
C  45.390000  49.660000  46.540000
O  45.760000  48.320000  46.850000
C  44.640000  49.720000  45.170000
O  45.530000  49.370000  44.110000
C  43.980000  51.090000  44.900000
O  42.890000  51.300000  45.790000
C  43.490000  51.280000  43.440000
O  42.710000  50.210000  42.940000
P  41.180000  50.150000  43.150000
O  40.850000  48.840000  42.610000
O  40.990000  50.260000  44.600000
O  40.650000  51.270000  42.360000
H  46.800000  53.260000  51.880000
H  51.230000  48.640000  49.470000
H  51.820000  46.060000  47.030000
H  52.490000  46.910000  48.410000
H  52.810000  47.480000  46.770000
H  49.370000  47.430000  44.410000
H  50.020000  46.110000  45.380000
H  51.100000  47.340000  44.740000
H  48.100000  48.820000  45.690000
H  46.180000  51.640000  46.650000
H  47.160000  50.540000  45.690000
H  44.690000  49.980000  47.310000
H  44.940000  47.780000  46.770000
H  43.850000  48.970000  45.190000
H  44.990000  49.100000  43.340000
H  44.720000  51.870000  45.070000
H  42.090000  50.830000  45.380000
H  42.950000  52.220000  43.350000
H  44.380000  51.350000  42.810000
