50
MSOG ligand from Selected_100.gro
N  36.530000  39.190000  40.870000
C  36.280000  38.580000  39.700000
O  35.330000  37.860000  39.520000
N  37.170000  38.720000  38.620000
C  38.250000  39.520000  38.600000
O  39.000000  39.590000  37.660000
C  38.500000  40.240000  39.890000
N  39.540000  41.000000  39.970000
C  39.830000  41.550000  41.190000
C  40.980000  42.360000  41.310000
C  41.370000  42.890000  42.520000
C  42.640000  43.690000  42.640000
C  40.550000  42.640000  43.660000
C  40.950000  43.170000  45.020000
C  39.400000  41.890000  43.540000
C  39.030000  41.310000  42.310000
N  37.900000  40.510000  42.180000
C  37.590000  39.950000  41.000000
C  37.130000  40.120000  43.390000
C  36.010000  41.080000  43.720000
O  36.370000  42.440000  43.580000
C  35.400000  40.810000  45.130000
O  36.410000  40.970000  46.120000
C  34.730000  39.420000  45.250000
O  33.610000  39.320000  44.370000
C  34.290000  39.070000  46.690000
O  33.520000  40.080000  47.330000
P  31.980000  40.160000  47.160000
O  31.670000  41.390000  47.900000
O  31.760000  40.280000  45.710000
O  31.440000  38.950000  47.760000
H  36.890000  38.260000  37.760000
H  41.580000  42.490000  40.430000
H  43.030000  43.940000  41.660000
H  43.400000  43.130000  43.190000
H  42.480000  44.620000  43.190000
H  41.110000  44.240000  44.980000
H  41.880000  42.710000  45.360000
H  40.170000  42.960000  45.750000
H  38.790000  41.750000  44.410000
H  37.830000  40.060000  44.210000
H  36.730000  39.140000  43.190000
H  35.220000  40.890000  42.990000
H  35.560000  42.960000  43.710000
H  34.630000  41.570000  45.300000
H  35.950000  41.130000  46.970000
H  35.460000  38.660000  44.960000
H  32.840000  39.750000  44.850000
H  35.190000  38.930000  47.280000
H  33.750000  38.130000  46.690000
