50
MSOG ligand from Selected_100.gro
N  36.450000  38.940000  40.810000
C  36.230000  38.320000  39.620000
O  35.230000  37.570000  39.480000
N  37.080000  38.480000  38.560000
C  38.220000  39.240000  38.600000
O  39.010000  39.280000  37.640000
C  38.460000  39.960000  39.830000
N  39.560000  40.730000  39.950000
C  39.780000  41.340000  41.140000
C  40.910000  42.140000  41.320000
C  41.210000  42.740000  42.530000
C  42.480000  43.550000  42.680000
C  40.320000  42.550000  43.640000
C  40.600000  43.210000  44.970000
C  39.200000  41.740000  43.490000
C  38.910000  41.150000  42.280000
N  37.770000  40.330000  42.140000
C  37.530000  39.740000  40.920000
C  36.950000  39.960000  43.280000
C  35.800000  40.860000  43.590000
O  36.240000  42.220000  43.440000
C  35.310000  40.630000  45.030000
O  36.380000  40.820000  45.940000
C  34.730000  39.240000  45.270000
O  33.640000  39.020000  44.390000
C  34.360000  38.980000  46.730000
O  33.590000  40.020000  47.280000
P  31.990000  40.140000  47.160000
O  31.660000  41.400000  47.910000
O  31.690000  40.280000  45.660000
O  31.350000  38.880000  47.750000
H  36.850000  37.980000  37.710000
H  41.570000  42.260000  40.480000
H  42.920000  43.750000  41.700000
H  43.190000  42.990000  43.280000
H  42.280000  44.500000  43.150000
H  41.390000  43.920000  45.070000
H  40.760000  42.480000  45.750000
H  39.710000  43.630000  45.400000
H  38.530000  41.710000  44.340000
H  37.550000  39.840000  44.170000
H  36.510000  38.960000  43.230000
H  34.990000  40.660000  42.890000
H  35.490000  42.790000  43.700000
H  34.530000  41.360000  45.240000
H  35.940000  40.960000  46.790000
H  35.490000  38.500000  45.040000
H  32.830000  39.460000  44.810000
H  35.280000  38.890000  47.310000
H  33.830000  38.030000  46.810000
