50
CR1 ligand from CR1Sel.gro
N  36.710000  41.530000  41.000000
C  36.320000  42.250000  39.930000
O  35.320000  42.920000  39.910000
N  37.080000  42.250000  38.750000
C  38.310000  41.710000  38.620000
O  38.980000  41.810000  37.630000
C  38.740000  40.900000  39.810000
N  39.860000  40.290000  39.750000
C  40.210000  39.480000  40.800000
C  41.430000  38.770000  40.710000
C  41.840000  37.930000  41.720000
C  43.140000  37.180000  41.600000
C  41.030000  37.820000  42.890000
C  41.470000  36.980000  44.060000
C  39.840000  38.540000  42.980000
C  39.400000  39.360000  41.930000
N  38.210000  40.100000  41.990000
C  37.830000  40.850000  40.950000
C  37.290000  39.910000  43.140000
C  37.580000  40.880000  44.270000
O  38.960000  41.150000  44.420000
C  37.020000  40.450000  45.650000
O  37.570000  39.200000  46.070000
C  35.480000  40.450000  45.790000
O  34.980000  41.770000  45.510000
C  35.140000  40.000000  47.240000
O  33.880000  40.410000  47.720000
P  33.780000  41.690000  48.590000
O  34.250000  42.730000  47.680000
O  34.650000  41.440000  49.740000
O  32.350000  41.770000  48.930000
H  36.730000  42.780000  37.970000
H  42.020000  38.910000  39.820000
H  43.540000  37.280000  40.590000
H  43.020000  36.120000  41.820000
H  43.890000  37.580000  42.290000
H  42.420000  37.340000  44.460000
H  41.610000  35.940000  43.770000
H  40.740000  37.010000  44.860000
H  39.270000  38.460000  43.880000
H  37.400000  38.890000  43.480000
H  36.280000  40.070000  42.780000
H  37.110000  41.830000  44.000000
H  39.010000  41.730000  45.210000
H  37.350000  41.200000  46.370000
H  37.080000  38.490000  45.580000
H  35.040000  39.750000  45.090000
H  34.700000  42.190000  46.390000
H  35.920000  40.350000  47.910000
H  35.170000  38.910000  47.250000
