50
AT1 ligand from AT1Sel.gro
N  43.420000  36.900000  38.160000
C  42.660000  36.540000  37.110000
O  43.020000  35.750000  36.270000
N  41.380000  37.100000  36.940000
C  40.780000  37.960000  37.790000
O  39.680000  38.410000  37.610000
C  41.630000  38.350000  38.960000
N  41.150000  39.190000  39.800000
C  41.960000  39.590000  40.830000
C  41.450000  40.510000  41.780000
C  42.220000  40.980000  42.820000
C  41.640000  41.920000  43.850000
C  43.580000  40.540000  42.910000
C  44.490000  41.070000  43.980000
C  44.070000  39.630000  42.000000
C  43.270000  39.130000  40.950000
N  43.740000  38.180000  40.040000
C  42.970000  37.780000  39.030000
C  45.170000  37.790000  40.070000
C  45.460000  36.590000  40.970000
O  44.800000  36.640000  42.220000
C  47.000000  36.430000  41.150000
O  47.520000  37.590000  41.800000
C  47.740000  36.150000  39.820000
O  47.380000  34.880000  39.300000
C  49.290000  36.250000  39.890000
O  49.880000  35.490000  40.930000
P  50.250000  33.990000  40.720000
O  48.980000  33.340000  40.390000
O  50.770000  33.630000  42.040000
O  51.260000  33.970000  39.660000
H  40.850000  36.760000  36.150000
H  40.430000  40.830000  41.650000
H  40.580000  42.070000  43.670000
H  42.140000  42.890000  43.820000
H  41.750000  41.520000  44.850000
H  44.070000  40.920000  44.970000
H  44.670000  42.140000  43.860000
H  45.460000  40.570000  43.950000
H  45.080000  39.300000  42.110000
H  45.740000  38.650000  40.380000
H  45.430000  37.530000  39.050000
H  45.090000  35.700000  40.450000
H  45.430000  37.000000  42.870000
H  47.170000  35.570000  41.810000
H  48.470000  37.460000  42.000000
H  47.450000  36.910000  39.090000
H  47.970000  34.200000  39.770000
H  49.530000  37.300000  40.070000
H  49.720000  35.980000  38.930000
